(set-logic QF_NRA)
(set-info :source |Benchmarks generated from hycomp (https://es-static.fbk.eu/tools/hycomp/). BMC instances of non-linear hybrid automata taken from: Alessandro Cimatti, Sergio Mover, Stefano Tonetta, A quantifier-free SMT encoding of non-linear hybrid automata, FMCAD 2012 and Alessandro Cimatti, Sergio Mover, Stefano Tonetta, Quantier-free encoding of invariants for Hybrid Systems, Formal Methods in System Design. This instance solves a BMC problem of depth 3 and uses the quantifier free encoding with lemmas encoding. Contacts: Sergio Mover (mover@fbk.eu), Stefano Tonetta (tonettas@fbk.eu), Alessandro Cimatti (cimatti@fbk.eu).|)
(set-info :smt-lib-version 2.0)
(set-info :category "industrial")
(set-info :status unsat)
;; MathSAT API call trace
;; generated on Mon Mar 19 10:38:45 2012
(declare-fun b.speed_y__AT2 () Real)
(declare-fun b.y__AT0 () Real)
(declare-fun b.counter.0__AT0 () Bool)
(declare-fun b.EVENT.0__AT0 () Bool)
(declare-fun b.counter.3__AT0 () Bool)
(declare-fun b.counter.1__AT0 () Bool)
(declare-fun b.event_is_timed__AT3 () Bool)
(declare-fun b.event_is_timed__AT1 () Bool)
(declare-fun b.bool_atom__AT1 () Bool)
(declare-fun b.y__AT3 () Real)
(declare-fun b.counter.0__AT3 () Bool)
(declare-fun b.g__AT0 () Real)
(declare-fun b.speed_y__AT0 () Real)
(declare-fun b.counter.1__AT3 () Bool)
(declare-fun b.x__AT3 () Real)
(declare-fun b.x__AT1 () Real)
(declare-fun b.counter.2__AT3 () Bool)
(declare-fun b.y__AT1 () Real)
(declare-fun b.counter.2__AT0 () Bool)
(declare-fun b.EVENT.1__AT3 () Bool)
(declare-fun b.counter.3__AT3 () Bool)
(declare-fun b.counter.0__AT1 () Bool)
(declare-fun b.bool_atom__AT3 () Bool)
(declare-fun b.counter.1__AT1 () Bool)
(declare-fun b.counter.2__AT1 () Bool)
(declare-fun b.event_is_timed__AT2 () Bool)
(declare-fun b.event_is_timed__AT0 () Bool)
(declare-fun b.speed_y__AT3 () Real)
(declare-fun b.time__AT3 () Real)
(declare-fun b.counter.3__AT1 () Bool)
(declare-fun b.bool_atom__AT0 () Bool)
(declare-fun b.delta__AT3 () Real)
(declare-fun b.x__AT0 () Real)
(declare-fun b.EVENT.0__AT3 () Bool)
(declare-fun b.counter.0__AT2 () Bool)
(declare-fun b.bool_atom__AT2 () Bool)
(declare-fun b.y__AT2 () Real)
(declare-fun b.delta__AT1 () Real)
(declare-fun b.speed_y__AT1 () Real)
(declare-fun b.counter.1__AT2 () Bool)
(declare-fun b.time__AT2 () Real)
(declare-fun b.time__AT1 () Real)
(declare-fun b.EVENT.0__AT1 () Bool)
(declare-fun b.counter.2__AT2 () Bool)
(declare-fun b.delta__AT2 () Real)
(declare-fun b.time__AT0 () Real)
(declare-fun b.x__AT2 () Real)
(declare-fun b.EVENT.1__AT1 () Bool)
(declare-fun b.counter.3__AT2 () Bool)
(declare-fun b.EVENT.0__AT2 () Bool)
(declare-fun b.delta__AT0 () Real)
(declare-fun b.EVENT.1__AT2 () Bool)
(declare-fun b.EVENT.1__AT0 () Bool)
(assert (let ((.def_65 (* (- 1.0) b.g__AT0)))
(let ((.def_68 (* (/ 1 2) .def_65)))
(let ((.def_80 (* 2.0 .def_68)))
(let ((.def_124 (* (- 1.0) .def_80)))
(let ((.def_811 (* .def_124 b.delta__AT3)))
(let ((.def_814 (<= .def_811 b.speed_y__AT3)))
(let ((.def_821 (not .def_814)))
(let ((.def_774 (<= 0.0 b.speed_y__AT3)))
(let ((.def_822 (or .def_774 .def_821)))
(let ((.def_812 (<= b.speed_y__AT3 .def_811)))
(let ((.def_788 (<= b.speed_y__AT3 0.0 )))
(let ((.def_789 (not .def_788)))
(let ((.def_820 (or .def_789 .def_812)))
(let ((.def_823 (and .def_820 .def_822)))
(let ((.def_115 (<= b.g__AT0 0.0 )))
(let ((.def_824 (or .def_115 .def_823)))
(let ((.def_816 (not .def_812)))
(let ((.def_817 (or .def_788 .def_816)))
(let ((.def_775 (not .def_774)))
(let ((.def_815 (or .def_775 .def_814)))
(let ((.def_818 (and .def_815 .def_817)))
(let ((.def_120 (<= 0.0 b.g__AT0)))
(let ((.def_819 (or .def_120 .def_818)))
(let ((.def_825 (and .def_819 .def_824)))
(let ((.def_813 (and .def_788 .def_812)))
(let ((.def_826 (and .def_813 .def_825)))
(let ((.def_770 (* .def_80 b.delta__AT3)))
(let ((.def_771 (+ b.speed_y__AT3 .def_770)))
(let ((.def_786 (<= .def_771 0.0 )))
(let ((.def_787 (not .def_786)))
(let ((.def_806 (or .def_787 .def_788)))
(let ((.def_772 (<= 0.0 .def_771)))
(let ((.def_805 (or .def_772 .def_775)))
(let ((.def_807 (and .def_805 .def_806)))
(let ((.def_808 (or .def_120 .def_807)))
(let ((.def_773 (not .def_772)))
(let ((.def_802 (or .def_773 .def_774)))
(let ((.def_801 (or .def_786 .def_789)))
(let ((.def_803 (and .def_801 .def_802)))
(let ((.def_804 (or .def_115 .def_803)))
(let ((.def_809 (and .def_804 .def_808)))
(let ((.def_800 (and .def_772 .def_774)))
(let ((.def_810 (and .def_800 .def_809)))
(let ((.def_827 (or .def_810 .def_826)))
(let ((.def_761 (* b.speed_y__AT3 b.delta__AT3)))
(let ((.def_759 (* b.delta__AT3 b.delta__AT3)))
(let ((.def_760 (* .def_68 .def_759)))
(let ((.def_762 (+ .def_760 .def_761)))
(let ((.def_748 (* (- 1.0) b.x__AT3)))
(let ((.def_749 (* b.x__AT3 .def_748)))
(let ((.def_763 (* (- 1.0) .def_749)))
(let ((.def_766 (+ .def_763 .def_762)))
(let ((.def_767 (+ b.y__AT3 .def_766)))
(let ((.def_780 (<= .def_767 0.0 )))
(let ((.def_794 (not .def_780)))
(let ((.def_778 (<= b.y__AT3 .def_749)))
(let ((.def_795 (or .def_778 .def_794)))
(let ((.def_750 (<= .def_749 b.y__AT3)))
(let ((.def_792 (not .def_750)))
(let ((.def_768 (<= 0.0 .def_767)))
(let ((.def_793 (or .def_768 .def_792)))
(let ((.def_796 (and .def_793 .def_795)))
(let ((.def_790 (or .def_787 .def_789)))
(let ((.def_791 (not .def_790)))
(let ((.def_797 (or .def_791 .def_796)))
(let ((.def_782 (not .def_768)))
(let ((.def_783 (or .def_750 .def_782)))
(let ((.def_779 (not .def_778)))
(let ((.def_781 (or .def_779 .def_780)))
(let ((.def_784 (and .def_781 .def_783)))
(let ((.def_776 (or .def_773 .def_775)))
(let ((.def_777 (not .def_776)))
(let ((.def_785 (or .def_777 .def_784)))
(let ((.def_798 (and .def_785 .def_797)))
(let ((.def_769 (and .def_750 .def_768)))
(let ((.def_799 (and .def_769 .def_798)))
(let ((.def_828 (and .def_799 .def_827)))
(let ((.def_57 (<= b.g__AT0 10.0 )))
(let ((.def_56 (<= 8.0 b.g__AT0)))
(let ((.def_58 (and .def_56 .def_57)))
(let ((.def_829 (and .def_58 .def_828)))
(let ((.def_440 (not b.counter.0__AT2)))
(let ((.def_430 (not b.counter.1__AT2)))
(let ((.def_754 (and .def_430 .def_440)))
(let ((.def_435 (not b.counter.2__AT2)))
(let ((.def_755 (and .def_435 .def_754)))
(let ((.def_751 (and .def_58 .def_750)))
(let ((.def_745 (not b.EVENT.0__AT3)))
(let ((.def_743 (not b.EVENT.1__AT3)))
(let ((.def_746 (or .def_743 .def_745)))
(let ((.def_6 (not b.counter.0__AT3)))
(let ((.def_4 (not b.counter.1__AT3)))
(let ((.def_736 (or .def_4 .def_6)))
(let ((.def_740 (or b.counter.3__AT3 .def_736)))
(let ((.def_737 (or b.counter.2__AT3 .def_736)))
(let ((.def_9 (not b.counter.2__AT3)))
(let ((.def_735 (or .def_6 .def_9)))
(let ((.def_738 (and .def_735 .def_737)))
(let ((.def_674 (not b.counter.3__AT3)))
(let ((.def_739 (or .def_674 .def_738)))
(let ((.def_741 (and .def_739 .def_740)))
(let ((.def_747 (and .def_741 .def_746)))
(let ((.def_752 (and .def_747 .def_751)))
(let ((.def_730 (<= 0.0 b.delta__AT2)))
(let ((.def_520 (not b.EVENT.0__AT2)))
(let ((.def_518 (not b.EVENT.1__AT2)))
(let ((.def_606 (and .def_518 .def_520)))
(let ((.def_608 (not .def_606)))
(let ((.def_731 (or .def_608 .def_730)))
(let ((.def_732 (or b.EVENT.1__AT2 .def_731)))
(let ((.def_644 (= b.bool_atom__AT2 b.bool_atom__AT3)))
(let ((.def_640 (= b.counter.0__AT3 b.counter.0__AT2)))
(let ((.def_638 (= b.counter.1__AT3 b.counter.1__AT2)))
(let ((.def_636 (= b.counter.2__AT3 b.counter.2__AT2)))
(let ((.def_635 (= b.counter.3__AT2 b.counter.3__AT3)))
(let ((.def_637 (and .def_635 .def_636)))
(let ((.def_639 (and .def_637 .def_638)))
(let ((.def_641 (and .def_639 .def_640)))
(let ((.def_726 (and .def_641 .def_644)))
(let ((.def_727 (or .def_608 .def_726)))
(let ((.def_728 (or b.EVENT.1__AT2 .def_727)))
(let ((.def_715 (* .def_65 b.delta__AT2)))
(let ((.def_716 (* (- 1.0) b.speed_y__AT3)))
(let ((.def_719 (+ .def_716 .def_715)))
(let ((.def_720 (+ b.speed_y__AT2 .def_719)))
(let ((.def_721 (= .def_720 0.0 )))
(let ((.def_706 (* (- 1.0) b.y__AT3)))
(let ((.def_536 (* b.speed_y__AT2 b.delta__AT2)))
(let ((.def_710 (+ .def_536 .def_706)))
(let ((.def_534 (* b.delta__AT2 b.delta__AT2)))
(let ((.def_535 (* .def_68 .def_534)))
(let ((.def_711 (+ .def_535 .def_710)))
(let ((.def_712 (+ b.y__AT2 .def_711)))
(let ((.def_713 (= .def_712 0.0 )))
(let ((.def_626 (= b.x__AT2 b.x__AT3)))
(let ((.def_714 (and .def_626 .def_713)))
(let ((.def_722 (and .def_714 .def_721)))
(let ((.def_723 (or .def_608 .def_722)))
(let ((.def_629 (= b.y__AT2 b.y__AT3)))
(let ((.def_701 (and .def_626 .def_629)))
(let ((.def_632 (= b.speed_y__AT2 b.speed_y__AT3)))
(let ((.def_702 (and .def_632 .def_701)))
(let ((.def_698 (= b.delta__AT2 0.0 )))
(let ((.def_699 (and .def_606 .def_698)))
(let ((.def_700 (not .def_699)))
(let ((.def_703 (or .def_700 .def_702)))
(let ((.def_704 (or b.EVENT.1__AT2 .def_703)))
(let ((.def_691 (and .def_632 .def_641)))
(let ((.def_692 (or b.bool_atom__AT2 .def_691)))
(let ((.def_666 (or .def_6 b.counter.0__AT2)))
(let ((.def_665 (or b.counter.0__AT3 .def_440)))
(let ((.def_667 (and .def_665 .def_666)))
(let ((.def_668 (and .def_4 .def_667)))
(let ((.def_669 (or b.counter.1__AT2 .def_668)))
(let ((.def_664 (or b.counter.1__AT3 .def_430)))
(let ((.def_670 (and .def_664 .def_669)))
(let ((.def_682 (and .def_9 .def_670)))
(let ((.def_683 (or b.counter.2__AT2 .def_682)))
(let ((.def_677 (and .def_4 .def_440)))
(let ((.def_678 (or b.counter.1__AT2 .def_677)))
(let ((.def_679 (and .def_664 .def_678)))
(let ((.def_680 (and b.counter.2__AT3 .def_679)))
(let ((.def_681 (or .def_435 .def_680)))
(let ((.def_684 (and .def_681 .def_683)))
(let ((.def_685 (and b.counter.3__AT3 .def_684)))
(let ((.def_686 (or b.counter.3__AT2 .def_685)))
(let ((.def_671 (and b.counter.2__AT3 .def_670)))
(let ((.def_672 (or b.counter.2__AT2 .def_671)))
(let ((.def_660 (or b.counter.1__AT3 b.counter.1__AT2)))
(let ((.def_658 (and .def_4 b.counter.0__AT3)))
(let ((.def_659 (or .def_430 .def_658)))
(let ((.def_661 (and .def_659 .def_660)))
(let ((.def_662 (and .def_9 .def_661)))
(let ((.def_663 (or .def_435 .def_662)))
(let ((.def_673 (and .def_663 .def_672)))
(let ((.def_675 (and .def_673 .def_674)))
(let ((.def_449 (not b.counter.3__AT2)))
(let ((.def_676 (or .def_449 .def_675)))
(let ((.def_687 (and .def_676 .def_686)))
(let ((.def_655 (* b.speed_y__AT3 b.speed_y__AT3)))
(let ((.def_427 (* b.speed_y__AT2 b.speed_y__AT2)))
(let ((.def_656 (= .def_427 .def_655)))
(let ((.def_653 (+ b.speed_y__AT2 b.speed_y__AT3)))
(let ((.def_654 (= .def_653 0.0 )))
(let ((.def_657 (and .def_654 .def_656)))
(let ((.def_688 (and .def_657 .def_687)))
(let ((.def_652 (not b.bool_atom__AT2)))
(let ((.def_689 (or .def_652 .def_688)))
(let ((.def_523 (* (- 1.0) b.x__AT2)))
(let ((.def_524 (* b.x__AT2 .def_523)))
(let ((.def_649 (= b.y__AT2 .def_524)))
(let ((.def_549 (<= 0.0 b.speed_y__AT2)))
(let ((.def_550 (not .def_549)))
(let ((.def_650 (and .def_550 .def_649)))
(let ((.def_651 (= b.bool_atom__AT2 .def_650)))
(let ((.def_690 (and .def_651 .def_689)))
(let ((.def_693 (and .def_690 .def_692)))
(let ((.def_694 (and .def_626 .def_693)))
(let ((.def_695 (and .def_629 .def_694)))
(let ((.def_696 (or .def_606 .def_695)))
(let ((.def_697 (or b.EVENT.1__AT2 .def_696)))
(let ((.def_705 (and .def_697 .def_704)))
(let ((.def_724 (and .def_705 .def_723)))
(let ((.def_613 (= b.time__AT2 b.time__AT3)))
(let ((.def_627 (and .def_613 .def_626)))
(let ((.def_630 (and .def_627 .def_629)))
(let ((.def_633 (and .def_630 .def_632)))
(let ((.def_642 (and .def_633 .def_641)))
(let ((.def_645 (and .def_642 .def_644)))
(let ((.def_646 (or .def_518 .def_645)))
(let ((.def_616 (* (- 1.0) b.time__AT3)))
(let ((.def_619 (+ b.delta__AT2 .def_616)))
(let ((.def_620 (+ b.time__AT2 .def_619)))
(let ((.def_621 (= .def_620 0.0 )))
(let ((.def_622 (or .def_608 .def_621)))
(let ((.def_623 (or b.EVENT.1__AT2 .def_622)))
(let ((.def_614 (or .def_606 .def_613)))
(let ((.def_615 (or b.EVENT.1__AT2 .def_614)))
(let ((.def_624 (and .def_615 .def_623)))
(let ((.def_647 (and .def_624 .def_646)))
(let ((.def_610 (= .def_608 b.event_is_timed__AT3)))
(let ((.def_607 (= b.event_is_timed__AT2 .def_606)))
(let ((.def_611 (and .def_607 .def_610)))
(let ((.def_648 (and .def_611 .def_647)))
(let ((.def_725 (and .def_648 .def_724)))
(let ((.def_729 (and .def_725 .def_728)))
(let ((.def_733 (and .def_729 .def_732)))
(let ((.def_734 (and .def_518 .def_733)))
(let ((.def_753 (and .def_734 .def_752)))
(let ((.def_756 (and .def_753 .def_755)))
(let ((.def_586 (* .def_124 b.delta__AT2)))
(let ((.def_589 (<= .def_586 b.speed_y__AT2)))
(let ((.def_596 (not .def_589)))
(let ((.def_597 (or .def_549 .def_596)))
(let ((.def_587 (<= b.speed_y__AT2 .def_586)))
(let ((.def_563 (<= b.speed_y__AT2 0.0 )))
(let ((.def_564 (not .def_563)))
(let ((.def_595 (or .def_564 .def_587)))
(let ((.def_598 (and .def_595 .def_597)))
(let ((.def_599 (or .def_115 .def_598)))
(let ((.def_591 (not .def_587)))
(let ((.def_592 (or .def_563 .def_591)))
(let ((.def_590 (or .def_550 .def_589)))
(let ((.def_593 (and .def_590 .def_592)))
(let ((.def_594 (or .def_120 .def_593)))
(let ((.def_600 (and .def_594 .def_599)))
(let ((.def_588 (and .def_563 .def_587)))
(let ((.def_601 (and .def_588 .def_600)))
(let ((.def_545 (* .def_80 b.delta__AT2)))
(let ((.def_546 (+ b.speed_y__AT2 .def_545)))
(let ((.def_561 (<= .def_546 0.0 )))
(let ((.def_562 (not .def_561)))
(let ((.def_581 (or .def_562 .def_563)))
(let ((.def_547 (<= 0.0 .def_546)))
(let ((.def_580 (or .def_547 .def_550)))
(let ((.def_582 (and .def_580 .def_581)))
(let ((.def_583 (or .def_120 .def_582)))
(let ((.def_548 (not .def_547)))
(let ((.def_577 (or .def_548 .def_549)))
(let ((.def_576 (or .def_561 .def_564)))
(let ((.def_578 (and .def_576 .def_577)))
(let ((.def_579 (or .def_115 .def_578)))
(let ((.def_584 (and .def_579 .def_583)))
(let ((.def_575 (and .def_547 .def_549)))
(let ((.def_585 (and .def_575 .def_584)))
(let ((.def_602 (or .def_585 .def_601)))
(let ((.def_537 (+ .def_535 .def_536)))
(let ((.def_538 (* (- 1.0) .def_524)))
(let ((.def_541 (+ .def_538 .def_537)))
(let ((.def_542 (+ b.y__AT2 .def_541)))
(let ((.def_555 (<= .def_542 0.0 )))
(let ((.def_569 (not .def_555)))
(let ((.def_553 (<= b.y__AT2 .def_524)))
(let ((.def_570 (or .def_553 .def_569)))
(let ((.def_525 (<= .def_524 b.y__AT2)))
(let ((.def_567 (not .def_525)))
(let ((.def_543 (<= 0.0 .def_542)))
(let ((.def_568 (or .def_543 .def_567)))
(let ((.def_571 (and .def_568 .def_570)))
(let ((.def_565 (or .def_562 .def_564)))
(let ((.def_566 (not .def_565)))
(let ((.def_572 (or .def_566 .def_571)))
(let ((.def_557 (not .def_543)))
(let ((.def_558 (or .def_525 .def_557)))
(let ((.def_554 (not .def_553)))
(let ((.def_556 (or .def_554 .def_555)))
(let ((.def_559 (and .def_556 .def_558)))
(let ((.def_551 (or .def_548 .def_550)))
(let ((.def_552 (not .def_551)))
(let ((.def_560 (or .def_552 .def_559)))
(let ((.def_573 (and .def_560 .def_572)))
(let ((.def_544 (and .def_525 .def_543)))
(let ((.def_574 (and .def_544 .def_573)))
(let ((.def_603 (and .def_574 .def_602)))
(let ((.def_604 (and .def_58 .def_603)))
(let ((.def_212 (not b.counter.0__AT1)))
(let ((.def_202 (not b.counter.1__AT1)))
(let ((.def_529 (and .def_202 .def_212)))
(let ((.def_207 (not b.counter.2__AT1)))
(let ((.def_530 (and .def_207 .def_529)))
(let ((.def_526 (and .def_58 .def_525)))
(let ((.def_521 (or .def_518 .def_520)))
(let ((.def_511 (or .def_430 .def_440)))
(let ((.def_515 (or b.counter.3__AT2 .def_511)))
(let ((.def_512 (or b.counter.2__AT2 .def_511)))
(let ((.def_510 (or .def_435 .def_440)))
(let ((.def_513 (and .def_510 .def_512)))
(let ((.def_514 (or .def_449 .def_513)))
(let ((.def_516 (and .def_514 .def_515)))
(let ((.def_522 (and .def_516 .def_521)))
(let ((.def_527 (and .def_522 .def_526)))
(let ((.def_505 (<= 0.0 b.delta__AT1)))
(let ((.def_291 (not b.EVENT.0__AT1)))
(let ((.def_289 (not b.EVENT.1__AT1)))
(let ((.def_375 (and .def_289 .def_291)))
(let ((.def_377 (not .def_375)))
(let ((.def_506 (or .def_377 .def_505)))
(let ((.def_507 (or b.EVENT.1__AT1 .def_506)))
(let ((.def_416 (= b.bool_atom__AT1 b.bool_atom__AT2)))
(let ((.def_412 (= b.counter.0__AT1 b.counter.0__AT2)))
(let ((.def_409 (= b.counter.1__AT1 b.counter.1__AT2)))
(let ((.def_406 (= b.counter.2__AT1 b.counter.2__AT2)))
(let ((.def_404 (= b.counter.3__AT1 b.counter.3__AT2)))
(let ((.def_407 (and .def_404 .def_406)))
(let ((.def_410 (and .def_407 .def_409)))
(let ((.def_413 (and .def_410 .def_412)))
(let ((.def_501 (and .def_413 .def_416)))
(let ((.def_502 (or .def_377 .def_501)))
(let ((.def_503 (or b.EVENT.1__AT1 .def_502)))
(let ((.def_490 (* .def_65 b.delta__AT1)))
(let ((.def_491 (* (- 1.0) b.speed_y__AT2)))
(let ((.def_494 (+ .def_491 .def_490)))
(let ((.def_495 (+ b.speed_y__AT1 .def_494)))
(let ((.def_496 (= .def_495 0.0 )))
(let ((.def_481 (* (- 1.0) b.y__AT2)))
(let ((.def_305 (* b.speed_y__AT1 b.delta__AT1)))
(let ((.def_485 (+ .def_305 .def_481)))
(let ((.def_303 (* b.delta__AT1 b.delta__AT1)))
(let ((.def_304 (* .def_68 .def_303)))
(let ((.def_486 (+ .def_304 .def_485)))
(let ((.def_487 (+ b.y__AT1 .def_486)))
(let ((.def_488 (= .def_487 0.0 )))
(let ((.def_395 (= b.x__AT1 b.x__AT2)))
(let ((.def_489 (and .def_395 .def_488)))
(let ((.def_497 (and .def_489 .def_496)))
(let ((.def_498 (or .def_377 .def_497)))
(let ((.def_398 (= b.y__AT1 b.y__AT2)))
(let ((.def_476 (and .def_395 .def_398)))
(let ((.def_401 (= b.speed_y__AT1 b.speed_y__AT2)))
(let ((.def_477 (and .def_401 .def_476)))
(let ((.def_473 (= b.delta__AT1 0.0 )))
(let ((.def_474 (and .def_375 .def_473)))
(let ((.def_475 (not .def_474)))
(let ((.def_478 (or .def_475 .def_477)))
(let ((.def_479 (or b.EVENT.1__AT1 .def_478)))
(let ((.def_466 (and .def_401 .def_413)))
(let ((.def_467 (or b.bool_atom__AT1 .def_466)))
(let ((.def_441 (or b.counter.0__AT1 .def_440)))
(let ((.def_439 (or .def_212 b.counter.0__AT2)))
(let ((.def_442 (and .def_439 .def_441)))
(let ((.def_443 (and .def_430 .def_442)))
(let ((.def_444 (or b.counter.1__AT1 .def_443)))
(let ((.def_438 (or .def_202 b.counter.1__AT2)))
(let ((.def_445 (and .def_438 .def_444)))
(let ((.def_457 (and .def_435 .def_445)))
(let ((.def_458 (or b.counter.2__AT1 .def_457)))
(let ((.def_452 (and .def_212 .def_430)))
(let ((.def_453 (or b.counter.1__AT1 .def_452)))
(let ((.def_454 (and .def_438 .def_453)))
(let ((.def_455 (and b.counter.2__AT2 .def_454)))
(let ((.def_456 (or .def_207 .def_455)))
(let ((.def_459 (and .def_456 .def_458)))
(let ((.def_460 (and b.counter.3__AT2 .def_459)))
(let ((.def_461 (or b.counter.3__AT1 .def_460)))
(let ((.def_446 (and b.counter.2__AT2 .def_445)))
(let ((.def_447 (or b.counter.2__AT1 .def_446)))
(let ((.def_433 (or b.counter.1__AT1 b.counter.1__AT2)))
(let ((.def_431 (and b.counter.0__AT2 .def_430)))
(let ((.def_432 (or .def_202 .def_431)))
(let ((.def_434 (and .def_432 .def_433)))
(let ((.def_436 (and .def_434 .def_435)))
(let ((.def_437 (or .def_207 .def_436)))
(let ((.def_448 (and .def_437 .def_447)))
(let ((.def_450 (and .def_448 .def_449)))
(let ((.def_221 (not b.counter.3__AT1)))
(let ((.def_451 (or .def_221 .def_450)))
(let ((.def_462 (and .def_451 .def_461)))
(let ((.def_198 (* b.speed_y__AT1 b.speed_y__AT1)))
(let ((.def_428 (= .def_198 .def_427)))
(let ((.def_425 (+ b.speed_y__AT1 b.speed_y__AT2)))
(let ((.def_426 (= .def_425 0.0 )))
(let ((.def_429 (and .def_426 .def_428)))
(let ((.def_463 (and .def_429 .def_462)))
(let ((.def_424 (not b.bool_atom__AT1)))
(let ((.def_464 (or .def_424 .def_463)))
(let ((.def_294 (* (- 1.0) b.x__AT1)))
(let ((.def_295 (* b.x__AT1 .def_294)))
(let ((.def_421 (= b.y__AT1 .def_295)))
(let ((.def_318 (<= 0.0 b.speed_y__AT1)))
(let ((.def_319 (not .def_318)))
(let ((.def_422 (and .def_319 .def_421)))
(let ((.def_423 (= b.bool_atom__AT1 .def_422)))
(let ((.def_465 (and .def_423 .def_464)))
(let ((.def_468 (and .def_465 .def_467)))
(let ((.def_469 (and .def_395 .def_468)))
(let ((.def_470 (and .def_398 .def_469)))
(let ((.def_471 (or .def_375 .def_470)))
(let ((.def_472 (or b.EVENT.1__AT1 .def_471)))
(let ((.def_480 (and .def_472 .def_479)))
(let ((.def_499 (and .def_480 .def_498)))
(let ((.def_382 (= b.time__AT1 b.time__AT2)))
(let ((.def_396 (and .def_382 .def_395)))
(let ((.def_399 (and .def_396 .def_398)))
(let ((.def_402 (and .def_399 .def_401)))
(let ((.def_414 (and .def_402 .def_413)))
(let ((.def_417 (and .def_414 .def_416)))
(let ((.def_418 (or .def_289 .def_417)))
(let ((.def_385 (* (- 1.0) b.time__AT2)))
(let ((.def_388 (+ b.delta__AT1 .def_385)))
(let ((.def_389 (+ b.time__AT1 .def_388)))
(let ((.def_390 (= .def_389 0.0 )))
(let ((.def_391 (or .def_377 .def_390)))
(let ((.def_392 (or b.EVENT.1__AT1 .def_391)))
(let ((.def_383 (or .def_375 .def_382)))
(let ((.def_384 (or b.EVENT.1__AT1 .def_383)))
(let ((.def_393 (and .def_384 .def_392)))
(let ((.def_419 (and .def_393 .def_418)))
(let ((.def_379 (= .def_377 b.event_is_timed__AT2)))
(let ((.def_376 (= b.event_is_timed__AT1 .def_375)))
(let ((.def_380 (and .def_376 .def_379)))
(let ((.def_420 (and .def_380 .def_419)))
(let ((.def_500 (and .def_420 .def_499)))
(let ((.def_504 (and .def_500 .def_503)))
(let ((.def_508 (and .def_504 .def_507)))
(let ((.def_509 (and .def_289 .def_508)))
(let ((.def_528 (and .def_509 .def_527)))
(let ((.def_531 (and .def_528 .def_530)))
(let ((.def_355 (* .def_124 b.delta__AT1)))
(let ((.def_358 (<= .def_355 b.speed_y__AT1)))
(let ((.def_365 (not .def_358)))
(let ((.def_366 (or .def_318 .def_365)))
(let ((.def_356 (<= b.speed_y__AT1 .def_355)))
(let ((.def_332 (<= b.speed_y__AT1 0.0 )))
(let ((.def_333 (not .def_332)))
(let ((.def_364 (or .def_333 .def_356)))
(let ((.def_367 (and .def_364 .def_366)))
(let ((.def_368 (or .def_115 .def_367)))
(let ((.def_360 (not .def_356)))
(let ((.def_361 (or .def_332 .def_360)))
(let ((.def_359 (or .def_319 .def_358)))
(let ((.def_362 (and .def_359 .def_361)))
(let ((.def_363 (or .def_120 .def_362)))
(let ((.def_369 (and .def_363 .def_368)))
(let ((.def_357 (and .def_332 .def_356)))
(let ((.def_370 (and .def_357 .def_369)))
(let ((.def_314 (* .def_80 b.delta__AT1)))
(let ((.def_315 (+ b.speed_y__AT1 .def_314)))
(let ((.def_330 (<= .def_315 0.0 )))
(let ((.def_331 (not .def_330)))
(let ((.def_350 (or .def_331 .def_332)))
(let ((.def_316 (<= 0.0 .def_315)))
(let ((.def_349 (or .def_316 .def_319)))
(let ((.def_351 (and .def_349 .def_350)))
(let ((.def_352 (or .def_120 .def_351)))
(let ((.def_317 (not .def_316)))
(let ((.def_346 (or .def_317 .def_318)))
(let ((.def_345 (or .def_330 .def_333)))
(let ((.def_347 (and .def_345 .def_346)))
(let ((.def_348 (or .def_115 .def_347)))
(let ((.def_353 (and .def_348 .def_352)))
(let ((.def_344 (and .def_316 .def_318)))
(let ((.def_354 (and .def_344 .def_353)))
(let ((.def_371 (or .def_354 .def_370)))
(let ((.def_306 (+ .def_304 .def_305)))
(let ((.def_307 (* (- 1.0) .def_295)))
(let ((.def_310 (+ .def_307 .def_306)))
(let ((.def_311 (+ b.y__AT1 .def_310)))
(let ((.def_324 (<= .def_311 0.0 )))
(let ((.def_338 (not .def_324)))
(let ((.def_322 (<= b.y__AT1 .def_295)))
(let ((.def_339 (or .def_322 .def_338)))
(let ((.def_296 (<= .def_295 b.y__AT1)))
(let ((.def_336 (not .def_296)))
(let ((.def_312 (<= 0.0 .def_311)))
(let ((.def_337 (or .def_312 .def_336)))
(let ((.def_340 (and .def_337 .def_339)))
(let ((.def_334 (or .def_331 .def_333)))
(let ((.def_335 (not .def_334)))
(let ((.def_341 (or .def_335 .def_340)))
(let ((.def_326 (not .def_312)))
(let ((.def_327 (or .def_296 .def_326)))
(let ((.def_323 (not .def_322)))
(let ((.def_325 (or .def_323 .def_324)))
(let ((.def_328 (and .def_325 .def_327)))
(let ((.def_320 (or .def_317 .def_319)))
(let ((.def_321 (not .def_320)))
(let ((.def_329 (or .def_321 .def_328)))
(let ((.def_342 (and .def_329 .def_341)))
(let ((.def_313 (and .def_296 .def_312)))
(let ((.def_343 (and .def_313 .def_342)))
(let ((.def_372 (and .def_343 .def_371)))
(let ((.def_373 (and .def_58 .def_372)))
(let ((.def_297 (and .def_58 .def_296)))
(let ((.def_292 (or .def_289 .def_291)))
(let ((.def_282 (or .def_202 .def_212)))
(let ((.def_286 (or b.counter.3__AT1 .def_282)))
(let ((.def_283 (or b.counter.2__AT1 .def_282)))
(let ((.def_281 (or .def_207 .def_212)))
(let ((.def_284 (and .def_281 .def_283)))
(let ((.def_285 (or .def_221 .def_284)))
(let ((.def_287 (and .def_285 .def_286)))
(let ((.def_293 (and .def_287 .def_292)))
(let ((.def_298 (and .def_293 .def_297)))
(let ((.def_276 (<= 0.0 b.delta__AT0)))
(let ((.def_46 (not b.EVENT.0__AT0)))
(let ((.def_44 (not b.EVENT.1__AT0)))
(let ((.def_145 (and .def_44 .def_46)))
(let ((.def_147 (not .def_145)))
(let ((.def_277 (or .def_147 .def_276)))
(let ((.def_278 (or b.EVENT.1__AT0 .def_277)))
(let ((.def_187 (= b.bool_atom__AT0 b.bool_atom__AT1)))
(let ((.def_182 (= b.counter.0__AT0 b.counter.0__AT1)))
(let ((.def_179 (= b.counter.1__AT0 b.counter.1__AT1)))
(let ((.def_176 (= b.counter.2__AT0 b.counter.2__AT1)))
(let ((.def_174 (= b.counter.3__AT0 b.counter.3__AT1)))
(let ((.def_177 (and .def_174 .def_176)))
(let ((.def_180 (and .def_177 .def_179)))
(let ((.def_183 (and .def_180 .def_182)))
(let ((.def_272 (and .def_183 .def_187)))
(let ((.def_273 (or .def_147 .def_272)))
(let ((.def_274 (or b.EVENT.1__AT0 .def_273)))
(let ((.def_261 (* b.delta__AT0 .def_65)))
(let ((.def_262 (* (- 1.0) b.speed_y__AT1)))
(let ((.def_265 (+ .def_262 .def_261)))
(let ((.def_266 (+ b.speed_y__AT0 .def_265)))
(let ((.def_267 (= .def_266 0.0 )))
(let ((.def_253 (* (- 1.0) b.y__AT1)))
(let ((.def_71 (* b.delta__AT0 b.speed_y__AT0)))
(let ((.def_256 (+ .def_71 .def_253)))
(let ((.def_64 (* b.delta__AT0 b.delta__AT0)))
(let ((.def_69 (* .def_64 .def_68)))
(let ((.def_257 (+ .def_69 .def_256)))
(let ((.def_258 (+ b.y__AT0 .def_257)))
(let ((.def_259 (= .def_258 0.0 )))
(let ((.def_165 (= b.x__AT0 b.x__AT1)))
(let ((.def_260 (and .def_165 .def_259)))
(let ((.def_268 (and .def_260 .def_267)))
(let ((.def_269 (or .def_147 .def_268)))
(let ((.def_168 (= b.y__AT0 b.y__AT1)))
(let ((.def_248 (and .def_165 .def_168)))
(let ((.def_171 (= b.speed_y__AT0 b.speed_y__AT1)))
(let ((.def_249 (and .def_171 .def_248)))
(let ((.def_245 (= b.delta__AT0 0.0 )))
(let ((.def_246 (and .def_145 .def_245)))
(let ((.def_247 (not .def_246)))
(let ((.def_250 (or .def_247 .def_249)))
(let ((.def_251 (or b.EVENT.1__AT0 .def_250)))
(let ((.def_238 (and .def_171 .def_183)))
(let ((.def_239 (or b.bool_atom__AT0 .def_238)))
(let ((.def_213 (or b.counter.0__AT0 .def_212)))
(let ((.def_27 (not b.counter.0__AT0)))
(let ((.def_211 (or .def_27 b.counter.0__AT1)))
(let ((.def_214 (and .def_211 .def_213)))
(let ((.def_215 (and .def_202 .def_214)))
(let ((.def_216 (or b.counter.1__AT0 .def_215)))
(let ((.def_25 (not b.counter.1__AT0)))
(let ((.def_210 (or .def_25 b.counter.1__AT1)))
(let ((.def_217 (and .def_210 .def_216)))
(let ((.def_229 (and .def_207 .def_217)))
(let ((.def_230 (or b.counter.2__AT0 .def_229)))
(let ((.def_224 (and .def_27 .def_202)))
(let ((.def_225 (or b.counter.1__AT0 .def_224)))
(let ((.def_226 (and .def_210 .def_225)))
(let ((.def_227 (and b.counter.2__AT1 .def_226)))
(let ((.def_30 (not b.counter.2__AT0)))
(let ((.def_228 (or .def_30 .def_227)))
(let ((.def_231 (and .def_228 .def_230)))
(let ((.def_232 (and b.counter.3__AT1 .def_231)))
(let ((.def_233 (or b.counter.3__AT0 .def_232)))
(let ((.def_218 (and b.counter.2__AT1 .def_217)))
(let ((.def_219 (or b.counter.2__AT0 .def_218)))
(let ((.def_205 (or b.counter.1__AT0 b.counter.1__AT1)))
(let ((.def_203 (and b.counter.0__AT1 .def_202)))
(let ((.def_204 (or .def_25 .def_203)))
(let ((.def_206 (and .def_204 .def_205)))
(let ((.def_208 (and .def_206 .def_207)))
(let ((.def_209 (or .def_30 .def_208)))
(let ((.def_220 (and .def_209 .def_219)))
(let ((.def_222 (and .def_220 .def_221)))
(let ((.def_33 (not b.counter.3__AT0)))
(let ((.def_223 (or .def_33 .def_222)))
(let ((.def_234 (and .def_223 .def_233)))
(let ((.def_199 (* b.speed_y__AT0 b.speed_y__AT0)))
(let ((.def_200 (= .def_198 .def_199)))
(let ((.def_196 (+ b.speed_y__AT0 b.speed_y__AT1)))
(let ((.def_197 (= .def_196 0.0 )))
(let ((.def_201 (and .def_197 .def_200)))
(let ((.def_235 (and .def_201 .def_234)))
(let ((.def_195 (not b.bool_atom__AT0)))
(let ((.def_236 (or .def_195 .def_235)))
(let ((.def_51 (* (- 1.0) b.x__AT0)))
(let ((.def_52 (* b.x__AT0 .def_51)))
(let ((.def_192 (= b.y__AT0 .def_52)))
(let ((.def_85 (<= 0.0 b.speed_y__AT0)))
(let ((.def_86 (not .def_85)))
(let ((.def_193 (and .def_86 .def_192)))
(let ((.def_194 (= b.bool_atom__AT0 .def_193)))
(let ((.def_237 (and .def_194 .def_236)))
(let ((.def_240 (and .def_237 .def_239)))
(let ((.def_241 (and .def_165 .def_240)))
(let ((.def_242 (and .def_168 .def_241)))
(let ((.def_243 (or .def_145 .def_242)))
(let ((.def_244 (or b.EVENT.1__AT0 .def_243)))
(let ((.def_252 (and .def_244 .def_251)))
(let ((.def_270 (and .def_252 .def_269)))
(let ((.def_152 (= b.time__AT0 b.time__AT1)))
(let ((.def_166 (and .def_152 .def_165)))
(let ((.def_169 (and .def_166 .def_168)))
(let ((.def_172 (and .def_169 .def_171)))
(let ((.def_184 (and .def_172 .def_183)))
(let ((.def_188 (and .def_184 .def_187)))
(let ((.def_189 (or .def_44 .def_188)))
(let ((.def_155 (* (- 1.0) b.time__AT1)))
(let ((.def_158 (+ b.delta__AT0 .def_155)))
(let ((.def_159 (+ b.time__AT0 .def_158)))
(let ((.def_160 (= .def_159 0.0 )))
(let ((.def_161 (or .def_147 .def_160)))
(let ((.def_162 (or b.EVENT.1__AT0 .def_161)))
(let ((.def_153 (or .def_145 .def_152)))
(let ((.def_154 (or b.EVENT.1__AT0 .def_153)))
(let ((.def_163 (and .def_154 .def_162)))
(let ((.def_190 (and .def_163 .def_189)))
(let ((.def_149 (= .def_147 b.event_is_timed__AT1)))
(let ((.def_146 (= b.event_is_timed__AT0 .def_145)))
(let ((.def_150 (and .def_146 .def_149)))
(let ((.def_191 (and .def_150 .def_190)))
(let ((.def_271 (and .def_191 .def_270)))
(let ((.def_275 (and .def_271 .def_274)))
(let ((.def_279 (and .def_275 .def_278)))
(let ((.def_280 (and .def_44 .def_279)))
(let ((.def_299 (and .def_280 .def_298)))
(let ((.def_28 (and .def_25 .def_27)))
(let ((.def_31 (and .def_28 .def_30)))
(let ((.def_300 (and .def_31 .def_299)))
(let ((.def_125 (* b.delta__AT0 .def_124)))
(let ((.def_128 (<= .def_125 b.speed_y__AT0)))
(let ((.def_135 (not .def_128)))
(let ((.def_136 (or .def_85 .def_135)))
(let ((.def_126 (<= b.speed_y__AT0 .def_125)))
(let ((.def_99 (<= b.speed_y__AT0 0.0 )))
(let ((.def_100 (not .def_99)))
(let ((.def_134 (or .def_100 .def_126)))
(let ((.def_137 (and .def_134 .def_136)))
(let ((.def_138 (or .def_115 .def_137)))
(let ((.def_130 (not .def_126)))
(let ((.def_131 (or .def_99 .def_130)))
(let ((.def_129 (or .def_86 .def_128)))
(let ((.def_132 (and .def_129 .def_131)))
(let ((.def_133 (or .def_120 .def_132)))
(let ((.def_139 (and .def_133 .def_138)))
(let ((.def_127 (and .def_99 .def_126)))
(let ((.def_140 (and .def_127 .def_139)))
(let ((.def_81 (* b.delta__AT0 .def_80)))
(let ((.def_82 (+ b.speed_y__AT0 .def_81)))
(let ((.def_97 (<= .def_82 0.0 )))
(let ((.def_98 (not .def_97)))
(let ((.def_118 (or .def_98 .def_99)))
(let ((.def_83 (<= 0.0 .def_82)))
(let ((.def_117 (or .def_83 .def_86)))
(let ((.def_119 (and .def_117 .def_118)))
(let ((.def_121 (or .def_119 .def_120)))
(let ((.def_84 (not .def_83)))
(let ((.def_113 (or .def_84 .def_85)))
(let ((.def_112 (or .def_97 .def_100)))
(let ((.def_114 (and .def_112 .def_113)))
(let ((.def_116 (or .def_114 .def_115)))
(let ((.def_122 (and .def_116 .def_121)))
(let ((.def_111 (and .def_83 .def_85)))
(let ((.def_123 (and .def_111 .def_122)))
(let ((.def_141 (or .def_123 .def_140)))
(let ((.def_72 (+ .def_69 .def_71)))
(let ((.def_73 (* (- 1.0) .def_52)))
(let ((.def_76 (+ .def_73 .def_72)))
(let ((.def_77 (+ b.y__AT0 .def_76)))
(let ((.def_91 (<= .def_77 0.0 )))
(let ((.def_105 (not .def_91)))
(let ((.def_89 (<= b.y__AT0 .def_52)))
(let ((.def_106 (or .def_89 .def_105)))
(let ((.def_53 (<= .def_52 b.y__AT0)))
(let ((.def_103 (not .def_53)))
(let ((.def_78 (<= 0.0 .def_77)))
(let ((.def_104 (or .def_78 .def_103)))
(let ((.def_107 (and .def_104 .def_106)))
(let ((.def_101 (or .def_98 .def_100)))
(let ((.def_102 (not .def_101)))
(let ((.def_108 (or .def_102 .def_107)))
(let ((.def_93 (not .def_78)))
(let ((.def_94 (or .def_53 .def_93)))
(let ((.def_90 (not .def_89)))
(let ((.def_92 (or .def_90 .def_91)))
(let ((.def_95 (and .def_92 .def_94)))
(let ((.def_87 (or .def_84 .def_86)))
(let ((.def_88 (not .def_87)))
(let ((.def_96 (or .def_88 .def_95)))
(let ((.def_109 (and .def_96 .def_108)))
(let ((.def_79 (and .def_53 .def_78)))
(let ((.def_110 (and .def_79 .def_109)))
(let ((.def_142 (and .def_110 .def_141)))
(let ((.def_143 (and .def_58 .def_142)))
(let ((.def_59 (and .def_53 .def_58)))
(let ((.def_47 (or .def_44 .def_46)))
(let ((.def_37 (or .def_25 .def_27)))
(let ((.def_41 (or b.counter.3__AT0 .def_37)))
(let ((.def_38 (or b.counter.2__AT0 .def_37)))
(let ((.def_36 (or .def_27 .def_30)))
(let ((.def_39 (and .def_36 .def_38)))
(let ((.def_40 (or .def_33 .def_39)))
(let ((.def_42 (and .def_40 .def_41)))
(let ((.def_48 (and .def_42 .def_47)))
(let ((.def_60 (and .def_48 .def_59)))
(let ((.def_34 (and .def_31 .def_33)))
(let ((.def_22 (= b.y__AT0 10.0 )))
(let ((.def_18 (= b.x__AT0 0.0 )))
(let ((.def_14 (= b.time__AT0 0.0 )))
(let ((.def_16 (and .def_14 b.event_is_timed__AT0)))
(let ((.def_19 (and .def_16 .def_18)))
(let ((.def_23 (and .def_19 .def_22)))
(let ((.def_35 (and .def_23 .def_34)))
(let ((.def_61 (and .def_35 .def_60)))
(let ((.def_7 (and .def_4 .def_6)))
(let ((.def_10 (and .def_7 .def_9)))
(let ((.def_11 (not .def_10)))
(let ((.def_62 (and .def_11 .def_61)))
(let ((.def_144 (and .def_62 .def_143)))
(let ((.def_301 (and .def_144 .def_300)))
(let ((.def_374 (and .def_301 .def_373)))
(let ((.def_532 (and .def_374 .def_531)))
(let ((.def_605 (and .def_532 .def_604)))
(let ((.def_757 (and .def_605 .def_756)))
(let ((.def_830 (and .def_757 .def_829)))
.def_830)))))))))))))))))))))))))))))))))))))))))))))))))))))))))))))))))))))))))))))))))))))))))))))))))))))))))))))))))))))))))))))))))))))))))))))))))))))))))))))))))))))))))))))))))))))))))))))))))))))))))))))))))))))))))))))))))))))))))))))))))))))))))))))))))))))))))))))))))))))))))))))))))))))))))))))))))))))))))))))))))))))))))))))))))))))))))))))))))))))))))))))))))))))))))))))))))))))))))))))))))))))))))))))))))))))))))))))))))))))))))))))))))))))))))))))))))))))))))))))))))))))))))))))))))))))))))))))))))))))))))))))))))))))))))))))))))))))))))))))))))))))))))))))))))))))))))))))))))))))))))))))))))))))))))))))))))))))))))))))))))))))))))))))))))))))))))))))))))))))))))))))))))))))))))))))))))))))))))))))))))))))))))))))))))))))
(check-sat)
(exit)
